000 001 001 000 001 000 000 000 000 000 000 000 000 001 001 000 000 000 000 000 -99 -99 -99 000 -99 -99 000 000 -99 -99 -99
001 001 001 001 001 001 001 -99 001 000 000 001 000 001 002 000 000 000 000 000 000 -99 -99 -99 000 -99 -99 -99 -99 -99 -99
001 001 001 001 001 002 001 -99 001 001 001 001 001 001 001 000 000 -99 -99 000 000 000 -99 000 000 -99 -99 -99 -99 -99 -99
001 001 001 000 001 001 001 -99 001 001 002 002 002 001 000 000 000 -99 -99 000 000 -99 000 000 000 000 -99 -99 -99 -99 -99
000 001 000 000 -99 -99 001 000 000 001 001 001 001 001 000 000 -99 000 -99 -99 000 000 000 000 000 000 -99 -99 -99 -99 -99
000 000 000 -99 -99 -99 -99 -99 000 000 001 000 000 000 000 000 -99 000 -99 -99 000 000 000 -99 000 001 003 -99 -99 -99 -99
000 000 000 000 -99 -99 000 000 000 000 000 000 000 000 000 000 -99 000 000 -99 -99 000 -99 -99 -99 001 -99 -99 -99 -99 -99
000 000 000 000 000 -99 -99 000 000 000 000 000 000 000 000 000 -99 -99 -99 000 -99 -99 -99 000 000 -99 -99 -99 -99 -99 -99
-99 -99 000 000 000 -99 -99 000 000 000 000 000 000 000 000 000 -99 000 000 000 000 -99 -99 000 000 -99 -99 -99 -99 -99 -99
-99 000 000 000 000 000 -99 000 000 000 000 000 000 000 000 000 -99 000 000 000 000 -99 -99 000 000 -99 -99 000 -99 -99 -99
-99 000 000 000 000 -99 -99 000 000 000 000 000 000 000 000 000 -99 -99 000 000 000 -99 -99 000 000 -99 -99 000 -99 000 000
000 000 000 -99 -99 -99 -99 -99 000 000 000 000 000 000 000 000 -99 -99 000 000 000 -99 -99 -99 000 -99 000 000 -99 000 000
000 000 000 -99 -99 000 000 000 000 000 000 000 000 000 -99 000 -99 -99 -99 000 000 000 -99 -99 -99 -99 000 000 -99 -99 000
000 000 000 000 000 000 000 000 000 000 000 000 000 000 -99 000 -99 -99 -99 -99 -99 000 -99 -99 000 000 000 000 -99 -99 000
000 000 000 000 000 000 000 000 000 000 000 000 000 000 000 000 000 -99 000 000 -99 000 -99 -99 000 000 000 000 000 -99 -99
000 -99 000 000 000 000 000 000 000 000 -99 000 000 000 000 000 000 -99 -99 000 -99 000 -99 000 000 000 000 000 000 000 -99
000 -99 -99 -99 000 000 000 000 -99 -99 -99 -99 000 000 000 000 000 000 -99 000 000 000 000 000 000 000 000 -99 000 000 -99
000 000 000 -99 -99 000 000 000 000 000 000 -99 -99 -99 000 000 000 000 000 000 000 000 000 -99 000 -99 -99 -99 000 000 000
000 000 000 -99 -99 -99 000 000 000 000 000 000 -99 000 000 -99 000 000 000 000 000 -99 000 -99 -99 -99 -99 -99 -99 000 000
000 000 000 000 -99 -99 000 000 000 000 000 000 000 000 000 -99 000 000 000 000 000 000 000 -99 -99 -99 -99 -99 -99 000 -99
000 000 000 000 000 000 -99 000 000 000 000 000 000 000 000 000 000 000 000 000 000 000 000 -99 -99 -99 -99 -99 -99 -99 -99
000 000 000 000 000 000 -99 000 000 000 -99 -99 000 000 000 000 000 000 000 000 000 000 000 -99 -99 -99 -99 -99 -99 -99 -99
000 000 000 000 000 000 -99 000 000 000 000 -99 000 000 000 000 000 000 000 000 000 000 000 -99 -99 -99 -99 -99 -99 -99 -99
000 000 000 000 000 000 000 000 000 000 -99 -99 000 000 000 000 000 000 000 000 000 000 000 -99 -99 -99 -99 -99 -99 -99 -99
000 000 000 000 000 000 000 000 000 -99 -99 -99 000 000 000 000 000 000 000 000 000 000 000 -99 -99 -99 -99 -99 -99 -99 -99
000 000 000 000 000 000 000 000 000 000 -99 -99 000 000 000 000 000 000 000 000 000 000 000 -99 -99 -99 -99 -99 -99 -99 -99
000 000 000 000 000 000 000 000 000 000 000 -99 -99 000 -99 -99 000 000 000 000 000 000 000 -99 -99 -99 -99 -99 -99 -99 -99
000 000 000 000 000 000 000 000 000 000 -99 -99 -99 -99 -99 000 000 000 000 000 000 000 000 -99 -99 -99 -99 -99 -99 -99 000
000 000 000 000 000 000 000 000 000 000 000 -99 -99 000 000 000 000 000 000 000 000 000 -99 -99 -99 -99 -99 -99 -99 -99 000
000 000 000 000 000 000 000 000 000 000 000 -99 -99 000 000 000 000 000 000 000 000 000 -99 -99 -99 -99 -99 -99 -99 -99 -99
000 000 000 000 000 000 000 000 000 000 000 000 000 000 000 000 000 000 000 000 000 000 -99 000 001 000 001 -99 -99 -99 -99
000 000 000 000 000 000 000 000 000 -99 -99 000 000 000 000 -99 000 000 000 -99 -99 000 000 000 001 001 001 -99 001 001 001
000 000 000 000 000 000 000 000 000 -99 -99 -99 000 000 000 000 000 000 000 -99 -99 000 000 001 001 001 001 001 001 001 002
000 000 000 000 000 000 000 000 000 -99 -99 000 -99 000 000 000 000 000 000 -99 000 000 000 001 002 002 002 002 003 001 005
001 001 000 000 000 000 000 000 000 000 -99 000 000 000 000 000 000 000 -99 000 000 000 000 001 001 002 003 006 005 003 007
002 001 000 000 000 000 000 000 000 000 000 000 000 000 000 000 000 000 000 000 000 000 001 001 001 002 007 013 014 010 034
002 000 000 000 000 -99 -99 000 000 -99 000 -99 000 000 000 000 000 000 000 000 000 001 003 002 001 003 010 013 030 035 050
000 000 000 000 -99 -99 -99 000 000 000 -99 -99 000 000 000 000 000 000 000 001 001 002 002 003 003 007 015 026 040 036 052
000 000 000 000 000 000 -99 000 -99 -99 -99 -99 000 000 000 000 000 001 001 002 002 003 005 005 004 008 010 021 035 035 058
000 000 000 000 000 000 000 000 -99 -99 000 000 000 000 000 001 001 002 001 002 003 002 003 006 005 011 015 016 032 032 033
000 000 000 000 000 -99 000 -99 -99 -99 000 000 000 000 000 001 002 003 002 003 002 002 003 004 007 008 006 010 029 028 018
000 000 000 -99 -99 -99 -99 -99 -99 000 000 000 000 000 001 001 002 003 003 003 002 002 003 003 007 006 007 009 007 017 021
000 000 000 -99 000 -99 -99 -99 000 000 000 000 000 001 001 001 002 002 003 003 004 002 002 003 003 004 005 008 005 005 013
000 000 000 000 -99 -99 000 000 000 000 000 000 000 000 001 001 001 002 002 003 001 001 001 001 003 004 005 004 004 003 010
000 000 000 000 000 000 000 000 000 000 000 000 000 000 000 000 001 001 002 002 001 001 000 001 002 001 001 003 003 002 005
001 000 000 000 000 000 000 000 000 000 000 000 000 000 000 001 001 000 001 001 001 000 000 000 000 000 000 001 -99 002 007
000 000 000 000 000 000 000 000 000 000 000 000 000 000 001 001 000 000 001 000 000 000 000 000 000 000 000 -99 -99 001 004
001 001 000 000 000 000 000 000 000 000 000 000 000 000 000 000 000 000 000 000 000 000 000 000 000 000 -99 -99 000 000 002
001 000 000 000 000 000 000 000 000 000 000 000 000 000 000 000 000 000 000 -99 000 000 000 000 000 -99 -99 000 000 000 000
000 000 000 000 000 000 000 000 000 000 000 000 000 000 000 000 000 000 -99 000 000 000 -99 000 000 000 000 000 -99 000 001
000 000 000 000 000 000 000 000 000 000 -99 -99 000 000 000 -99 -99 -99 000 000 000 000 000 000 000 000 000 000 -99 000 000
000 001 001 000 000 000 000 000 000 -99 -99 -99 000 000 -99 -99 -99 000 000 000 000 000 000 001 001 000 -99 -99 -99 -99 001
000 001 001 000 000 000 000 000 -99 -99 -99 -99 -99 000 -99 -99 -99 000 000 000 000 000 001 003 000 000 -99 -99 -99 -99 000
001 001 002 000 000 000 000 000 -99 -99 -99 -99 -99 -99 -99 -99 000 000 000 -99 000 000 002 002 000 000 -99 -99 -99 -99 000
001 001 000 000 000 000 -99 -99 -99 -99 -99 -99 -99 -99 -99 -99 000 000 -99 -99 000 000 001 002 000 000 -99 000 000 -99 001
